15
1 0 1
2 0 3
2 1 3
3 0 2
3 1 1
3 2 1
4 0 2
4 1 3
4 2 2
4 3 3
5 0 3
5 1 2
5 2 1
5 3 2
5 4 3
6 0 1
6 1 2
6 2 1
6 3 2
6 4 3
6 5 2
7 0 3
7 1 3
7 2 3
7 3 1
7 4 1
7 5 1
7 6 1
8 0 2
8 1 3
8 2 3
8 3 2
8 4 2
8 5 2
8 6 2
8 7 1
9 0 3
9 1 3
9 2 3
9 3 1
9 4 3
9 5 1
9 6 1
9 7 1
9 8 3
10 0 1
10 1 2
10 2 1
10 3 2
10 4 1
10 5 2
10 6 3
10 7 1
10 8 1
10 9 1
11 0 1
11 1 3
11 2 2
11 3 1
11 4 3
11 5 3
11 6 3
11 7 1
11 8 3
11 9 1
11 10 3
12 0 2
12 1 3
12 2 1
12 3 3
12 4 3
12 5 2
12 6 2
12 7 1
12 8 3
12 9 1
12 10 3
12 11 2
13 0 2
13 1 2
13 2 3
13 3 2
13 4 3
13 5 1
13 6 2
13 7 1
13 8 3
13 9 2
13 10 2
13 11 1
13 12 3
14 0 1
14 1 1
14 2 3
14 3 1
14 4 3
14 5 2
14 6 1
14 7 2
14 8 1
14 9 1
14 10 2
14 11 3
14 12 2
14 13 3
